LibMLKEM/why3-cvc5/mlkem.adb_848_19_postcondition_1.smt2
;; produced by cvc5.drv ;;
(set-logic ALL)
(set-info :smt-lib-version 2.6)
;;; generated by SMT-LIB2 driver
;;; SMT-LIB2 driver: bit-vectors, common part
;;; SMT-LIB2: integer arithmetic
;; "pow2"
(declare-fun pow2 (Int) Int)

(declare-const two_power_size_minus_one Int)

;; "two_power_size_minus_one_val"
(assert (= two_power_size_minus_one (pow2 (- 8 1))))

;; "min"
(define-fun min ((x Int) (y Int)) Int
  (ite (<= x y) x y))

;; "max"
(define-fun max ((x Int) (y Int)) Int
  (ite (<= x y) y x))

;; "Min_r"
(assert (forall ((x Int) (y Int)) (=> (<= y x) (= (min x y) y))))

;; "Max_l"
(assert (forall ((x Int) (y Int)) (=> (<= y x) (= (max x y) x))))

;; "Min_comm"
(assert (forall ((x Int) (y Int)) (= (min x y) (min y x))))

;; "Max_comm"
(assert (forall ((x Int) (y Int)) (= (max x y) (max y x))))

;; "Min_assoc"
(assert
  (forall ((x Int) (y Int) (z Int)) (= (min (min x y) z) (min x (min y z)))))

;; "Max_assoc"
(assert
  (forall ((x Int) (y Int) (z Int)) (= (max (max x y) z) (max x (max y z)))))

;; "lsr"
(declare-fun lsr ((_ BitVec 16)
  Int) (_ BitVec 16))

(declare-const two_power_size_minus_one1 Int)

;; "two_power_size_minus_one_val"
(assert (= two_power_size_minus_one1 (pow2 (- 16 1))))

;; "lsr_bv_is_lsr"
(assert
  (forall ((x (_ BitVec 16)) (n (_ BitVec 16)))
    (= (bvlshr x n) (lsr x (bv2nat n)))))

(declare-sort u8_bit 0)

;; "in_range"
(define-fun in_range ((x (_ BitVec 8))) Bool
  (and (bvule #x00 x) (bvule x #x01)))

;; "to_rep"
(declare-fun to_rep (u8_bit) (_ BitVec 8))

;; "of_rep"
(declare-fun of_rep ((_ BitVec 8)) u8_bit)

;; "inversion_axiom"
(assert
  (forall ((x u8_bit)) (! (= (of_rep (to_rep x)) x) :pattern ((to_rep x)) )))

;; "range_axiom"
(assert
  (forall ((x u8_bit)) (! (in_range (to_rep x)) :pattern ((to_rep x)) )))

;; "coerce_axiom"
(assert
  (forall ((x (_ BitVec 8)))
    (! (=> (in_range x) (= (to_rep (of_rep x)) x)) :pattern ((to_rep
                                                               (of_rep x))) )))

(declare-sort map1 0)

;; "has_bounds"
(declare-fun has_bounds (map1
  Int
  Int) Bool)

;; "get"
(declare-fun get (map1
  Int) u8_bit)

;; "bits_12_to_u16"
(declare-fun bits_12_to_u16 (map1) (_ BitVec 16))

;; "bits_12_to_u16__function_guard"
(declare-fun bits_12_to_u16__function_guard ((_ BitVec 16)
  map1) Bool)

(declare-const x (_ BitVec 16))

(declare-const t (_ BitVec 16))

;; "in_range"
(define-fun in_range1 ((x1 (_ BitVec 16))) Bool
  (and (bvule #x0000 x1) (bvule x1 #x0D00)))

;; "temp_____aggregate_def_4330"
(declare-fun temp_____aggregate_def_4330 ((_ BitVec 8)
  (_ BitVec 8)
  (_ BitVec 8)
  (_ BitVec 8)
  (_ BitVec 8)
  (_ BitVec 8)
  (_ BitVec 8)
  (_ BitVec 8)
  (_ BitVec 8)
  (_ BitVec 8)
  (_ BitVec 8)
  (_ BitVec 8)) map1)

;; "bits_12_to_u16__post_axiom"
(assert
  (forall ((param__x map1))
    (! (=>
         (has_bounds param__x 0 11)
         (let ((result (bits_12_to_u16 param__x)))
           (=>
             (bits_12_to_u16__function_guard result param__x)
             (bvult result #x1000)))) :pattern ((bits_12_to_u16 param__x)) )))

;; "bits_12_to_u16__def_axiom"
(assert
  (forall ((param__x map1))
    (! (= (bits_12_to_u16 param__x) (bvadd (bvadd (bvadd (bvadd (bvadd (bvadd (bvadd (bvadd (bvadd (bvadd (bvadd ((_ zero_extend 8) 
    (to_rep
      (get param__x 0))) (bvmul ((_ zero_extend 8) (to_rep (get param__x 1))) #x0002)) (bvmul ((_ zero_extend 8) 
    (to_rep
      (get param__x 2))) #x0004)) (bvmul ((_ zero_extend 8) (to_rep
                                                              (get
                                                                param__x
                                                                3))) #x0008)) (bvmul ((_ zero_extend 8) 
    (to_rep
      (get param__x 4))) #x0010)) (bvmul ((_ zero_extend 8) (to_rep
                                                              (get
                                                                param__x
                                                                5))) #x0020)) (bvmul ((_ zero_extend 8) 
    (to_rep
      (get param__x 6))) #x0040)) (bvmul ((_ zero_extend 8) (to_rep
                                                              (get
                                                                param__x
                                                                7))) #x0080)) (bvmul ((_ zero_extend 8) 
    (to_rep
      (get param__x 8))) #x0100)) (bvmul ((_ zero_extend 8) (to_rep
                                                              (get
                                                                param__x
                                                                9))) #x0200)) (bvmul ((_ zero_extend 8) 
    (to_rep
      (get param__x 10))) #x0400)) (bvmul ((_ zero_extend 8) (to_rep
                                                               (get
                                                                 param__x
                                                                 11))) #x0800))) :pattern (
    (bits_12_to_u16
      param__x)) )))

;; Goal "def'vc"
;; File "mlkem.adb", line 847, characters 0-0
(assert
  (not
  (=>
    (in_range1 x)
    (=>
      (= x t)
      (=>
        (bvult t #x0D01)
        (forall ((o (_ BitVec 16)))
          (=>
            (ite (< 11 16) (= o (bvlshr t ((_ int2bv 16) 11))) (= o #x0000))
            (let ((o1 ((_ extract 7 0) (bvand o #x0001))))
              (forall ((o2 (_ BitVec 16)))
                (=>
                  (ite (< 10 16)
                    (= o2 (bvlshr t ((_ int2bv 16) 10)))
                    (= o2 #x0000))
                  (let ((o3 ((_ extract 7 0) (bvand o2 #x0001))))
                    (forall ((o4 (_ BitVec 16)))
                      (=>
                        (ite (< 9 16)
                          (= o4 (bvlshr t ((_ int2bv 16) 9)))
                          (= o4 #x0000))
                        (let ((o5 ((_ extract 7 0) (bvand o4 #x0001))))
                          (forall ((o6 (_ BitVec 16)))
                            (=>
                              (ite (< 8 16)
                                (= o6 (bvlshr t ((_ int2bv 16) 8)))
                                (= o6 #x0000))
                              (let ((o7 ((_ extract 7 0) (bvand o6 #x0001))))
                                (forall ((o8 (_ BitVec 16)))
                                  (=>
                                    (ite (< 7 16)
                                      (= o8 (bvlshr t ((_ int2bv 16) 7)))
                                      (= o8 #x0000))
                                    (let ((o9 ((_ extract 7 0) (bvand o8 #x0001))))
                                      (forall ((o10 (_ BitVec 16)))
                                        (=>
                                          (ite (< 6 16)
                                            (= o10 (bvlshr t ((_ int2bv 16) 6)))
                                            (= o10 #x0000))
                                          (let ((o11 ((_ extract 7 0) (bvand o10 #x0001))))
                                            (forall ((o12 (_ BitVec 16)))
                                              (=>
                                                (ite (< 5 16)
                                                  (= o12 (bvlshr t ((_ int2bv 16) 5)))
                                                  (= o12 #x0000))
                                                (let ((o13 ((_ extract 7 0) (bvand o12 #x0001))))
                                                  (forall ((o14 (_ BitVec 16)))
                                                    (=>
                                                      (ite (< 4 16)
                                                        (= o14 (bvlshr 
                                                        t ((_ int2bv 16) 4)))
                                                        (= o14 #x0000))
                                                      (let ((o15 ((_ extract 7 0) (bvand o14 #x0001))))
                                                        (forall ((o16 (_ BitVec 16)))
                                                          (=>
                                                            (ite (< 3 16)
                                                              (= o16 (bvlshr 
                                                              t ((_ int2bv 16) 3)))
                                                              (= o16 #x0000))
                                                            (let ((o17 ((_ extract 7 0) (bvand o16 #x0001))))
                                                              (forall 
                                                                ((o18 (_ BitVec 16)))
                                                                (=>
                                                                  (ite (< 2 16)
                                                                    (= o18 (bvlshr 
                                                                    t ((_ int2bv 16) 2)))
                                                                    (= o18 #x0000))
                                                                  (let ((o19 ((_ extract 7 0) (bvand o18 #x0001))))
                                                                    (forall 
                                                                    ((o20 (_ BitVec 16)))
                                                                    (=>
                                                                    (ite (< 1 16)
                                                                    (= o20 (bvlshr 
                                                                    t ((_ int2bv 16) 1)))
                                                                    (= o20 #x0000))
                                                                    (let ((o21 ((_ extract 7 0) (bvand o20 #x0001))))
                                                                    (let ((o22 ((_ extract 7 0) (bvand 
                                                                    t #x0001))))
                                                                    (forall 
                                                                    ((temp___4334 map1))
                                                                    (=>
                                                                    (and
                                                                    (and
                                                                    (and
                                                                    (and
                                                                    (= 
                                                                    (to_rep
                                                                    (get
                                                                    temp___4334
                                                                    0)) o22)
                                                                    (= 
                                                                    (to_rep
                                                                    (get
                                                                    temp___4334
                                                                    1)) o21))
                                                                    (and
                                                                    (and
                                                                    (and
                                                                    (and
                                                                    (= 
                                                                    (to_rep
                                                                    (get
                                                                    temp___4334
                                                                    2)) o19)
                                                                    (= 
                                                                    (to_rep
                                                                    (get
                                                                    temp___4334
                                                                    3)) o17))
                                                                    (= 
                                                                    (to_rep
                                                                    (get
                                                                    temp___4334
                                                                    4)) o15))
                                                                    (and
                                                                    (= 
                                                                    (to_rep
                                                                    (get
                                                                    temp___4334
                                                                    5)) o13)
                                                                    (= 
                                                                    (to_rep
                                                                    (get
                                                                    temp___4334
                                                                    6)) o11)))
                                                                    (and
                                                                    (and
                                                                    (and
                                                                    (= 
                                                                    (to_rep
                                                                    (get
                                                                    temp___4334
                                                                    7)) o9)
                                                                    (= 
                                                                    (to_rep
                                                                    (get
                                                                    temp___4334
                                                                    8)) o7))
                                                                    (= 
                                                                    (to_rep
                                                                    (get
                                                                    temp___4334
                                                                    9)) o5))
                                                                    (and
                                                                    (= 
                                                                    (to_rep
                                                                    (get
                                                                    temp___4334
                                                                    10)) o3)
                                                                    (= 
                                                                    (to_rep
                                                                    (get
                                                                    temp___4334
                                                                    11)) o1)))))
                                                                    (has_bounds
                                                                    temp___4334
                                                                    0
                                                                    11))
                                                                    (= temp___4334 
                                                                    (temp_____aggregate_def_4330
                                                                    o22
                                                                    o21
                                                                    o19
                                                                    o17
                                                                    o15
                                                                    o13
                                                                    o11
                                                                    o9
                                                                    o7
                                                                    o5
                                                                    o3
                                                                    o1)))
                                                                    (forall 
                                                                    ((mlkem__zq_to_bits_12__result map1))
                                                                    (=>
                                                                    (= mlkem__zq_to_bits_12__result temp___4334)
                                                                    (=>
                                                                    (bits_12_to_u16__function_guard
                                                                    (bits_12_to_u16
                                                                    mlkem__zq_to_bits_12__result)
                                                                    mlkem__zq_to_bits_12__result)
                                                                    (bvult 
                                                                    (bits_12_to_u16
                                                                    mlkem__zq_to_bits_12__result) #x0D01)))))))))))))))))))))))))))))))))))))))))))))

(check-sat)
